c FILE: hole11.cnf
c SOURCE: file mkhole.ml of Sylvain.Boulme@imag.fr
c DESCRIPTION: placing each of 12 pigeons in 11 distinct holes (one pigeon by hole)
c NOTE: Not Satisfiable
p cnf 132 738
132 131 130 129 128 127 126 125 124 123 122 0
121 120 119 118 117 116 115 114 113 112 111 0
110 109 108 107 106 105 104 103 102 101 100 0
99 98 97 96 95 94 93 92 91 90 89 0
88 87 86 85 84 83 82 81 80 79 78 0
77 76 75 74 73 72 71 70 69 68 67 0
66 65 64 63 62 61 60 59 58 57 56 0
55 54 53 52 51 50 49 48 47 46 45 0
44 43 42 41 40 39 38 37 36 35 34 0
33 32 31 30 29 28 27 26 25 24 23 0
22 21 20 19 18 17 16 15 14 13 12 0
11 10 9 8 7 6 5 4 3 2 1 0
-132 -121 0
-132 -110 0
-132 -99 0
-132 -88 0
-132 -77 0
-132 -66 0
-132 -55 0
-132 -44 0
-132 -33 0
-132 -22 0
-132 -11 0
-121 -110 0
-121 -99 0
-121 -88 0
-121 -77 0
-121 -66 0
-121 -55 0
-121 -44 0
-121 -33 0
-121 -22 0
-121 -11 0
-110 -99 0
-110 -88 0
-110 -77 0
-110 -66 0
-110 -55 0
-110 -44 0
-110 -33 0
-110 -22 0
-110 -11 0
-99 -88 0
-99 -77 0
-99 -66 0
-99 -55 0
-99 -44 0
-99 -33 0
-99 -22 0
-99 -11 0
-88 -77 0
-88 -66 0
-88 -55 0
-88 -44 0
-88 -33 0
-88 -22 0
-88 -11 0
-77 -66 0
-77 -55 0
-77 -44 0
-77 -33 0
-77 -22 0
-77 -11 0
-66 -55 0
-66 -44 0
-66 -33 0
-66 -22 0
-66 -11 0
-55 -44 0
-55 -33 0
-55 -22 0
-55 -11 0
-44 -33 0
-44 -22 0
-44 -11 0
-33 -22 0
-33 -11 0
-22 -11 0
-131 -120 0
-131 -109 0
-131 -98 0
-131 -87 0
-131 -76 0
-131 -65 0
-131 -54 0
-131 -43 0
-131 -32 0
-131 -21 0
-131 -10 0
-120 -109 0
-120 -98 0
-120 -87 0
-120 -76 0
-120 -65 0
-120 -54 0
-120 -43 0
-120 -32 0
-120 -21 0
-120 -10 0
-109 -98 0
-109 -87 0
-109 -76 0
-109 -65 0
-109 -54 0
-109 -43 0
-109 -32 0
-109 -21 0
-109 -10 0
-98 -87 0
-98 -76 0
-98 -65 0
-98 -54 0
-98 -43 0
-98 -32 0
-98 -21 0
-98 -10 0
-87 -76 0
-87 -65 0
-87 -54 0
-87 -43 0
-87 -32 0
-87 -21 0
-87 -10 0
-76 -65 0
-76 -54 0
-76 -43 0
-76 -32 0
-76 -21 0
-76 -10 0
-65 -54 0
-65 -43 0
-65 -32 0
-65 -21 0
-65 -10 0
-54 -43 0
-54 -32 0
-54 -21 0
-54 -10 0
-43 -32 0
-43 -21 0
-43 -10 0
-32 -21 0
-32 -10 0
-21 -10 0
-130 -119 0
-130 -108 0
-130 -97 0
-130 -86 0
-130 -75 0
-130 -64 0
-130 -53 0
-130 -42 0
-130 -31 0
-130 -20 0
-130 -9 0
-119 -108 0
-119 -97 0
-119 -86 0
-119 -75 0
-119 -64 0
-119 -53 0
-119 -42 0
-119 -31 0
-119 -20 0
-119 -9 0
-108 -97 0
-108 -86 0
-108 -75 0
-108 -64 0
-108 -53 0
-108 -42 0
-108 -31 0
-108 -20 0
-108 -9 0
-97 -86 0
-97 -75 0
-97 -64 0
-97 -53 0
-97 -42 0
-97 -31 0
-97 -20 0
-97 -9 0
-86 -75 0
-86 -64 0
-86 -53 0
-86 -42 0
-86 -31 0
-86 -20 0
-86 -9 0
-75 -64 0
-75 -53 0
-75 -42 0
-75 -31 0
-75 -20 0
-75 -9 0
-64 -53 0
-64 -42 0
-64 -31 0
-64 -20 0
-64 -9 0
-53 -42 0
-53 -31 0
-53 -20 0
-53 -9 0
-42 -31 0
-42 -20 0
-42 -9 0
-31 -20 0
-31 -9 0
-20 -9 0
-129 -118 0
-129 -107 0
-129 -96 0
-129 -85 0
-129 -74 0
-129 -63 0
-129 -52 0
-129 -41 0
-129 -30 0
-129 -19 0
-129 -8 0
-118 -107 0
-118 -96 0
-118 -85 0
-118 -74 0
-118 -63 0
-118 -52 0
-118 -41 0
-118 -30 0
-118 -19 0
-118 -8 0
-107 -96 0
-107 -85 0
-107 -74 0
-107 -63 0
-107 -52 0
-107 -41 0
-107 -30 0
-107 -19 0
-107 -8 0
-96 -85 0
-96 -74 0
-96 -63 0
-96 -52 0
-96 -41 0
-96 -30 0
-96 -19 0
-96 -8 0
-85 -74 0
-85 -63 0
-85 -52 0
-85 -41 0
-85 -30 0
-85 -19 0
-85 -8 0
-74 -63 0
-74 -52 0
-74 -41 0
-74 -30 0
-74 -19 0
-74 -8 0
-63 -52 0
-63 -41 0
-63 -30 0
-63 -19 0
-63 -8 0
-52 -41 0
-52 -30 0
-52 -19 0
-52 -8 0
-41 -30 0
-41 -19 0
-41 -8 0
-30 -19 0
-30 -8 0
-19 -8 0
-128 -117 0
-128 -106 0
-128 -95 0
-128 -84 0
-128 -73 0
-128 -62 0
-128 -51 0
-128 -40 0
-128 -29 0
-128 -18 0
-128 -7 0
-117 -106 0
-117 -95 0
-117 -84 0
-117 -73 0
-117 -62 0
-117 -51 0
-117 -40 0
-117 -29 0
-117 -18 0
-117 -7 0
-106 -95 0
-106 -84 0
-106 -73 0
-106 -62 0
-106 -51 0
-106 -40 0
-106 -29 0
-106 -18 0
-106 -7 0
-95 -84 0
-95 -73 0
-95 -62 0
-95 -51 0
-95 -40 0
-95 -29 0
-95 -18 0
-95 -7 0
-84 -73 0
-84 -62 0
-84 -51 0
-84 -40 0
-84 -29 0
-84 -18 0
-84 -7 0
-73 -62 0
-73 -51 0
-73 -40 0
-73 -29 0
-73 -18 0
-73 -7 0
-62 -51 0
-62 -40 0
-62 -29 0
-62 -18 0
-62 -7 0
-51 -40 0
-51 -29 0
-51 -18 0
-51 -7 0
-40 -29 0
-40 -18 0
-40 -7 0
-29 -18 0
-29 -7 0
-18 -7 0
-127 -116 0
-127 -105 0
-127 -94 0
-127 -83 0
-127 -72 0
-127 -61 0
-127 -50 0
-127 -39 0
-127 -28 0
-127 -17 0
-127 -6 0
-116 -105 0
-116 -94 0
-116 -83 0
-116 -72 0
-116 -61 0
-116 -50 0
-116 -39 0
-116 -28 0
-116 -17 0
-116 -6 0
-105 -94 0
-105 -83 0
-105 -72 0
-105 -61 0
-105 -50 0
-105 -39 0
-105 -28 0
-105 -17 0
-105 -6 0
-94 -83 0
-94 -72 0
-94 -61 0
-94 -50 0
-94 -39 0
-94 -28 0
-94 -17 0
-94 -6 0
-83 -72 0
-83 -61 0
-83 -50 0
-83 -39 0
-83 -28 0
-83 -17 0
-83 -6 0
-72 -61 0
-72 -50 0
-72 -39 0
-72 -28 0
-72 -17 0
-72 -6 0
-61 -50 0
-61 -39 0
-61 -28 0
-61 -17 0
-61 -6 0
-50 -39 0
-50 -28 0
-50 -17 0
-50 -6 0
-39 -28 0
-39 -17 0
-39 -6 0
-28 -17 0
-28 -6 0
-17 -6 0
-126 -115 0
-126 -104 0
-126 -93 0
-126 -82 0
-126 -71 0
-126 -60 0
-126 -49 0
-126 -38 0
-126 -27 0
-126 -16 0
-126 -5 0
-115 -104 0
-115 -93 0
-115 -82 0
-115 -71 0
-115 -60 0
-115 -49 0
-115 -38 0
-115 -27 0
-115 -16 0
-115 -5 0
-104 -93 0
-104 -82 0
-104 -71 0
-104 -60 0
-104 -49 0
-104 -38 0
-104 -27 0
-104 -16 0
-104 -5 0
-93 -82 0
-93 -71 0
-93 -60 0
-93 -49 0
-93 -38 0
-93 -27 0
-93 -16 0
-93 -5 0
-82 -71 0
-82 -60 0
-82 -49 0
-82 -38 0
-82 -27 0
-82 -16 0
-82 -5 0
-71 -60 0
-71 -49 0
-71 -38 0
-71 -27 0
-71 -16 0
-71 -5 0
-60 -49 0
-60 -38 0
-60 -27 0
-60 -16 0
-60 -5 0
-49 -38 0
-49 -27 0
-49 -16 0
-49 -5 0
-38 -27 0
-38 -16 0
-38 -5 0
-27 -16 0
-27 -5 0
-16 -5 0
-125 -114 0
-125 -103 0
-125 -92 0
-125 -81 0
-125 -70 0
-125 -59 0
-125 -48 0
-125 -37 0
-125 -26 0
-125 -15 0
-125 -4 0
-114 -103 0
-114 -92 0
-114 -81 0
-114 -70 0
-114 -59 0
-114 -48 0
-114 -37 0
-114 -26 0
-114 -15 0
-114 -4 0
-103 -92 0
-103 -81 0
-103 -70 0
-103 -59 0
-103 -48 0
-103 -37 0
-103 -26 0
-103 -15 0
-103 -4 0
-92 -81 0
-92 -70 0
-92 -59 0
-92 -48 0
-92 -37 0
-92 -26 0
-92 -15 0
-92 -4 0
-81 -70 0
-81 -59 0
-81 -48 0
-81 -37 0
-81 -26 0
-81 -15 0
-81 -4 0
-70 -59 0
-70 -48 0
-70 -37 0
-70 -26 0
-70 -15 0
-70 -4 0
-59 -48 0
-59 -37 0
-59 -26 0
-59 -15 0
-59 -4 0
-48 -37 0
-48 -26 0
-48 -15 0
-48 -4 0
-37 -26 0
-37 -15 0
-37 -4 0
-26 -15 0
-26 -4 0
-15 -4 0
-124 -113 0
-124 -102 0
-124 -91 0
-124 -80 0
-124 -69 0
-124 -58 0
-124 -47 0
-124 -36 0
-124 -25 0
-124 -14 0
-124 -3 0
-113 -102 0
-113 -91 0
-113 -80 0
-113 -69 0
-113 -58 0
-113 -47 0
-113 -36 0
-113 -25 0
-113 -14 0
-113 -3 0
-102 -91 0
-102 -80 0
-102 -69 0
-102 -58 0
-102 -47 0
-102 -36 0
-102 -25 0
-102 -14 0
-102 -3 0
-91 -80 0
-91 -69 0
-91 -58 0
-91 -47 0
-91 -36 0
-91 -25 0
-91 -14 0
-91 -3 0
-80 -69 0
-80 -58 0
-80 -47 0
-80 -36 0
-80 -25 0
-80 -14 0
-80 -3 0
-69 -58 0
-69 -47 0
-69 -36 0
-69 -25 0
-69 -14 0
-69 -3 0
-58 -47 0
-58 -36 0
-58 -25 0
-58 -14 0
-58 -3 0
-47 -36 0
-47 -25 0
-47 -14 0
-47 -3 0
-36 -25 0
-36 -14 0
-36 -3 0
-25 -14 0
-25 -3 0
-14 -3 0
-123 -112 0
-123 -101 0
-123 -90 0
-123 -79 0
-123 -68 0
-123 -57 0
-123 -46 0
-123 -35 0
-123 -24 0
-123 -13 0
-123 -2 0
-112 -101 0
-112 -90 0
-112 -79 0
-112 -68 0
-112 -57 0
-112 -46 0
-112 -35 0
-112 -24 0
-112 -13 0
-112 -2 0
-101 -90 0
-101 -79 0
-101 -68 0
-101 -57 0
-101 -46 0
-101 -35 0
-101 -24 0
-101 -13 0
-101 -2 0
-90 -79 0
-90 -68 0
-90 -57 0
-90 -46 0
-90 -35 0
-90 -24 0
-90 -13 0
-90 -2 0
-79 -68 0
-79 -57 0
-79 -46 0
-79 -35 0
-79 -24 0
-79 -13 0
-79 -2 0
-68 -57 0
-68 -46 0
-68 -35 0
-68 -24 0
-68 -13 0
-68 -2 0
-57 -46 0
-57 -35 0
-57 -24 0
-57 -13 0
-57 -2 0
-46 -35 0
-46 -24 0
-46 -13 0
-46 -2 0
-35 -24 0
-35 -13 0
-35 -2 0
-24 -13 0
-24 -2 0
-13 -2 0
-122 -111 0
-122 -100 0
-122 -89 0
-122 -78 0
-122 -67 0
-122 -56 0
-122 -45 0
-122 -34 0
-122 -23 0
-122 -12 0
-122 -1 0
-111 -100 0
-111 -89 0
-111 -78 0
-111 -67 0
-111 -56 0
-111 -45 0
-111 -34 0
-111 -23 0
-111 -12 0
-111 -1 0
-100 -89 0
-100 -78 0
-100 -67 0
-100 -56 0
-100 -45 0
-100 -34 0
-100 -23 0
-100 -12 0
-100 -1 0
-89 -78 0
-89 -67 0
-89 -56 0
-89 -45 0
-89 -34 0
-89 -23 0
-89 -12 0
-89 -1 0
-78 -67 0
-78 -56 0
-78 -45 0
-78 -34 0
-78 -23 0
-78 -12 0
-78 -1 0
-67 -56 0
-67 -45 0
-67 -34 0
-67 -23 0
-67 -12 0
-67 -1 0
-56 -45 0
-56 -34 0
-56 -23 0
-56 -12 0
-56 -1 0
-45 -34 0
-45 -23 0
-45 -12 0
-45 -1 0
-34 -23 0
-34 -12 0
-34 -1 0
-23 -12 0
-23 -1 0
-12 -1 0
